NAME /Users/henri/Research/solvers/instances/idol-instances/robust/collection/spp_dkp_Lefebvre_et_al_2026/shortest_path_9_4/models/uncertain_obj/model
ROWS
 N  OBJ
 E  flow_cons_inner_nodes[0]
 E  flow_cons_inner_nodes[1]
 E  flow_cons_inner_nodes[2]
 E  flow_cons_inner_nodes[3]
 E  flow_cons_inner_nodes[4]
 E  flow_cons_inner_nodes[5]
 E  flow_cons_inner_nodes[8]
 E  flow_cons_source
 E  flow_cons_target
COLUMNS
    MARKER    'MARKER'                 'INTORG'
    y[0,1]     OBJ        24.33
    y[0,1]     flow_cons_inner_nodes[1] 1
    y[0,1]     flow_cons_inner_nodes[0] -1
    y[0,2]     OBJ        69.57
    y[0,2]     flow_cons_inner_nodes[2] 1
    y[0,2]     flow_cons_inner_nodes[0] -1
    y[0,3]     OBJ        73.55
    y[0,3]     flow_cons_inner_nodes[3] 1
    y[0,3]     flow_cons_inner_nodes[0] -1
    y[0,4]     OBJ        25.08
    y[0,4]     flow_cons_inner_nodes[4] 1
    y[0,4]     flow_cons_inner_nodes[0] -1
    y[0,5]     OBJ        75.43
    y[0,5]     flow_cons_inner_nodes[5] 1
    y[0,5]     flow_cons_inner_nodes[0] -1
    y[0,6]     OBJ        43.42
    y[0,6]     flow_cons_source -1
    y[0,6]     flow_cons_inner_nodes[0] -1
    y[0,8]     OBJ        84.06
    y[0,8]     flow_cons_inner_nodes[8] 1
    y[0,8]     flow_cons_inner_nodes[0] -1
    y[1,0]     OBJ        24.33
    y[1,0]     flow_cons_inner_nodes[1] -1
    y[1,0]     flow_cons_inner_nodes[0] 1
    y[1,2]     OBJ        83.76
    y[1,2]     flow_cons_inner_nodes[2] 1
    y[1,2]     flow_cons_inner_nodes[1] -1
    y[1,3]     OBJ        76.53
    y[1,3]     flow_cons_inner_nodes[3] 1
    y[1,3]     flow_cons_inner_nodes[1] -1
    y[1,4]     OBJ        14.04
    y[1,4]     flow_cons_inner_nodes[4] 1
    y[1,4]     flow_cons_inner_nodes[1] -1
    y[1,6]     OBJ        67.03
    y[1,6]     flow_cons_source -1
    y[1,6]     flow_cons_inner_nodes[1] -1
    y[2,0]     OBJ        69.57
    y[2,0]     flow_cons_inner_nodes[2] -1
    y[2,0]     flow_cons_inner_nodes[0] 1
    y[2,1]     OBJ        83.76
    y[2,1]     flow_cons_inner_nodes[2] -1
    y[2,1]     flow_cons_inner_nodes[1] 1
    y[2,3]     OBJ        37.48
    y[2,3]     flow_cons_inner_nodes[3] 1
    y[2,3]     flow_cons_inner_nodes[2] -1
    y[2,4]     OBJ        71.84
    y[2,4]     flow_cons_inner_nodes[4] 1
    y[2,4]     flow_cons_inner_nodes[2] -1
    y[2,5]     OBJ        25.96
    y[2,5]     flow_cons_inner_nodes[5] 1
    y[2,5]     flow_cons_inner_nodes[2] -1
    y[2,6]     OBJ        75
    y[2,6]     flow_cons_source -1
    y[2,6]     flow_cons_inner_nodes[2] -1
    y[2,7]     OBJ        27.31
    y[2,7]     flow_cons_target 1
    y[2,7]     flow_cons_inner_nodes[2] -1
    y[2,8]     OBJ        23.54
    y[2,8]     flow_cons_inner_nodes[8] 1
    y[2,8]     flow_cons_inner_nodes[2] -1
    y[3,0]     OBJ        73.55
    y[3,0]     flow_cons_inner_nodes[3] -1
    y[3,0]     flow_cons_inner_nodes[0] 1
    y[3,1]     OBJ        76.53
    y[3,1]     flow_cons_inner_nodes[3] -1
    y[3,1]     flow_cons_inner_nodes[1] 1
    y[3,2]     OBJ        37.48
    y[3,2]     flow_cons_inner_nodes[3] -1
    y[3,2]     flow_cons_inner_nodes[2] 1
    y[3,4]     OBJ        62.51
    y[3,4]     flow_cons_inner_nodes[4] 1
    y[3,4]     flow_cons_inner_nodes[3] -1
    y[3,5]     OBJ        63.35
    y[3,5]     flow_cons_inner_nodes[5] 1
    y[3,5]     flow_cons_inner_nodes[3] -1
    y[3,7]     OBJ        32.2
    y[3,7]     flow_cons_target 1
    y[3,7]     flow_cons_inner_nodes[3] -1
    y[3,8]     OBJ        60.01
    y[3,8]     flow_cons_inner_nodes[8] 1
    y[3,8]     flow_cons_inner_nodes[3] -1
    y[4,0]     OBJ        25.08
    y[4,0]     flow_cons_inner_nodes[4] -1
    y[4,0]     flow_cons_inner_nodes[0] 1
    y[4,1]     OBJ        14.04
    y[4,1]     flow_cons_inner_nodes[4] -1
    y[4,1]     flow_cons_inner_nodes[1] 1
    y[4,2]     OBJ        71.84
    y[4,2]     flow_cons_inner_nodes[4] -1
    y[4,2]     flow_cons_inner_nodes[2] 1
    y[4,3]     OBJ        62.51
    y[4,3]     flow_cons_inner_nodes[4] -1
    y[4,3]     flow_cons_inner_nodes[3] 1
    y[4,5]     OBJ        85.45
    y[4,5]     flow_cons_inner_nodes[5] 1
    y[4,5]     flow_cons_inner_nodes[4] -1
    y[4,6]     OBJ        67.91
    y[4,6]     flow_cons_source -1
    y[4,6]     flow_cons_inner_nodes[4] -1
    y[4,7]     OBJ        87.85
    y[4,7]     flow_cons_target 1
    y[4,7]     flow_cons_inner_nodes[4] -1
    y[5,0]     OBJ        75.43
    y[5,0]     flow_cons_inner_nodes[5] -1
    y[5,0]     flow_cons_inner_nodes[0] 1
    y[5,2]     OBJ        25.96
    y[5,2]     flow_cons_inner_nodes[5] -1
    y[5,2]     flow_cons_inner_nodes[2] 1
    y[5,3]     OBJ        63.35
    y[5,3]     flow_cons_inner_nodes[5] -1
    y[5,3]     flow_cons_inner_nodes[3] 1
    y[5,4]     OBJ        85.45
    y[5,4]     flow_cons_inner_nodes[5] -1
    y[5,4]     flow_cons_inner_nodes[4] 1
    y[5,6]     OBJ        65.12
    y[5,6]     flow_cons_source -1
    y[5,6]     flow_cons_inner_nodes[5] -1
    y[5,7]     OBJ        48.17
    y[5,7]     flow_cons_target 1
    y[5,7]     flow_cons_inner_nodes[5] -1
    y[5,8]     OBJ        12.17
    y[5,8]     flow_cons_inner_nodes[8] 1
    y[5,8]     flow_cons_inner_nodes[5] -1
    y[6,0]     OBJ        43.42
    y[6,0]     flow_cons_source 1
    y[6,0]     flow_cons_inner_nodes[0] 1
    y[6,1]     OBJ        67.03
    y[6,1]     flow_cons_source 1
    y[6,1]     flow_cons_inner_nodes[1] 1
    y[6,2]     OBJ        75
    y[6,2]     flow_cons_source 1
    y[6,2]     flow_cons_inner_nodes[2] 1
    y[6,4]     OBJ        67.91
    y[6,4]     flow_cons_source 1
    y[6,4]     flow_cons_inner_nodes[4] 1
    y[6,5]     OBJ        65.12
    y[6,5]     flow_cons_source 1
    y[6,5]     flow_cons_inner_nodes[5] 1
    y[6,8]     OBJ        77.03
    y[6,8]     flow_cons_source 1
    y[6,8]     flow_cons_inner_nodes[8] 1
    y[7,2]     OBJ        27.31
    y[7,2]     flow_cons_target -1
    y[7,2]     flow_cons_inner_nodes[2] 1
    y[7,3]     OBJ        32.2
    y[7,3]     flow_cons_target -1
    y[7,3]     flow_cons_inner_nodes[3] 1
    y[7,4]     OBJ        87.85
    y[7,4]     flow_cons_target -1
    y[7,4]     flow_cons_inner_nodes[4] 1
    y[7,5]     OBJ        48.17
    y[7,5]     flow_cons_target -1
    y[7,5]     flow_cons_inner_nodes[5] 1
    y[7,8]     OBJ        39.45
    y[7,8]     flow_cons_target -1
    y[7,8]     flow_cons_inner_nodes[8] 1
    y[8,0]     OBJ        84.06
    y[8,0]     flow_cons_inner_nodes[8] -1
    y[8,0]     flow_cons_inner_nodes[0] 1
    y[8,2]     OBJ        23.54
    y[8,2]     flow_cons_inner_nodes[8] -1
    y[8,2]     flow_cons_inner_nodes[2] 1
    y[8,3]     OBJ        60.01
    y[8,3]     flow_cons_inner_nodes[8] -1
    y[8,3]     flow_cons_inner_nodes[3] 1
    y[8,5]     OBJ        12.17
    y[8,5]     flow_cons_inner_nodes[8] -1
    y[8,5]     flow_cons_inner_nodes[5] 1
    y[8,6]     OBJ        77.03
    y[8,6]     flow_cons_source -1
    y[8,6]     flow_cons_inner_nodes[8] -1
    y[8,7]     OBJ        39.45
    y[8,7]     flow_cons_target 1
    y[8,7]     flow_cons_inner_nodes[8] -1
    MARKER    'MARKER'                 'INTEND'
RHS
    RHS       flow_cons_inner_nodes[0] -0
    RHS       flow_cons_inner_nodes[1] -0
    RHS       flow_cons_inner_nodes[2] -0
    RHS       flow_cons_inner_nodes[3] -0
    RHS       flow_cons_inner_nodes[4] -0
    RHS       flow_cons_inner_nodes[5] -0
    RHS       flow_cons_inner_nodes[8] -0
    RHS       flow_cons_source 1
    RHS       flow_cons_target 1
BOUNDS
 LI BND       y[0,1]     0
 UI BND       y[0,1]     1
 LI BND       y[0,2]     0
 UI BND       y[0,2]     1
 LI BND       y[0,3]     0
 UI BND       y[0,3]     1
 LI BND       y[0,4]     0
 UI BND       y[0,4]     1
 LI BND       y[0,5]     0
 UI BND       y[0,5]     1
 LI BND       y[0,6]     0
 UI BND       y[0,6]     1
 LI BND       y[0,8]     0
 UI BND       y[0,8]     1
 LI BND       y[1,0]     0
 UI BND       y[1,0]     1
 LI BND       y[1,2]     0
 UI BND       y[1,2]     1
 LI BND       y[1,3]     0
 UI BND       y[1,3]     1
 LI BND       y[1,4]     0
 UI BND       y[1,4]     1
 LI BND       y[1,6]     0
 UI BND       y[1,6]     1
 LI BND       y[2,0]     0
 UI BND       y[2,0]     1
 LI BND       y[2,1]     0
 UI BND       y[2,1]     1
 LI BND       y[2,3]     0
 UI BND       y[2,3]     1
 LI BND       y[2,4]     0
 UI BND       y[2,4]     1
 LI BND       y[2,5]     0
 UI BND       y[2,5]     1
 LI BND       y[2,6]     0
 UI BND       y[2,6]     1
 LI BND       y[2,7]     0
 UI BND       y[2,7]     1
 LI BND       y[2,8]     0
 UI BND       y[2,8]     1
 LI BND       y[3,0]     0
 UI BND       y[3,0]     1
 LI BND       y[3,1]     0
 UI BND       y[3,1]     1
 LI BND       y[3,2]     0
 UI BND       y[3,2]     1
 LI BND       y[3,4]     0
 UI BND       y[3,4]     1
 LI BND       y[3,5]     0
 UI BND       y[3,5]     1
 LI BND       y[3,7]     0
 UI BND       y[3,7]     1
 LI BND       y[3,8]     0
 UI BND       y[3,8]     1
 LI BND       y[4,0]     0
 UI BND       y[4,0]     1
 LI BND       y[4,1]     0
 UI BND       y[4,1]     1
 LI BND       y[4,2]     0
 UI BND       y[4,2]     1
 LI BND       y[4,3]     0
 UI BND       y[4,3]     1
 LI BND       y[4,5]     0
 UI BND       y[4,5]     1
 LI BND       y[4,6]     0
 UI BND       y[4,6]     1
 LI BND       y[4,7]     0
 UI BND       y[4,7]     1
 LI BND       y[5,0]     0
 UI BND       y[5,0]     1
 LI BND       y[5,2]     0
 UI BND       y[5,2]     1
 LI BND       y[5,3]     0
 UI BND       y[5,3]     1
 LI BND       y[5,4]     0
 UI BND       y[5,4]     1
 LI BND       y[5,6]     0
 UI BND       y[5,6]     1
 LI BND       y[5,7]     0
 UI BND       y[5,7]     1
 LI BND       y[5,8]     0
 UI BND       y[5,8]     1
 LI BND       y[6,0]     0
 UI BND       y[6,0]     1
 LI BND       y[6,1]     0
 UI BND       y[6,1]     1
 LI BND       y[6,2]     0
 UI BND       y[6,2]     1
 LI BND       y[6,4]     0
 UI BND       y[6,4]     1
 LI BND       y[6,5]     0
 UI BND       y[6,5]     1
 LI BND       y[6,8]     0
 UI BND       y[6,8]     1
 LI BND       y[7,2]     0
 UI BND       y[7,2]     1
 LI BND       y[7,3]     0
 UI BND       y[7,3]     1
 LI BND       y[7,4]     0
 UI BND       y[7,4]     1
 LI BND       y[7,5]     0
 UI BND       y[7,5]     1
 LI BND       y[7,8]     0
 UI BND       y[7,8]     1
 LI BND       y[8,0]     0
 UI BND       y[8,0]     1
 LI BND       y[8,2]     0
 UI BND       y[8,2]     1
 LI BND       y[8,3]     0
 UI BND       y[8,3]     1
 LI BND       y[8,5]     0
 UI BND       y[8,5]     1
 LI BND       y[8,6]     0
 UI BND       y[8,6]     1
 LI BND       y[8,7]     0
 UI BND       y[8,7]     1
ENDATA
